wmc_benchmarks/WMCBenchSingleMea/dj_nativegates_ibm_qiskit_opt0_10.qasm.cnf
p cnf 213 752
c p weight -21 1 0
c p weight 21 -1 0
c p weight 25 6.12323399573676603586882014729198302312846062338790031898128063403419218957424163818359375E-17 0
c p weight -25 1 0
c p weight 26 1 0
c p weight -26 1 0
c p weight -23 1 0
c p weight 23 -1 0
c p weight -27 1 0
c p weight 27 -1 0
c p weight -29 1 0
c p weight 29 -1 0
c p weight -30 1 0
c p weight 30 -1 0
c p weight 34 6.12323399573676603586882014729198302312846062338790031898128063403419218957424163818359375E-17 0
c p weight -34 1 0
c p weight 35 1 0
c p weight -35 1 0
c p weight -32 1 0
c p weight 32 -1 0
c p weight -36 1 0
c p weight 36 -1 0
c p weight -38 1 0
c p weight 38 -1 0
c p weight -39 1 0
c p weight 39 -1 0
c p weight 43 6.12323399573676603586882014729198302312846062338790031898128063403419218957424163818359375E-17 0
c p weight -43 1 0
c p weight 44 1 0
c p weight -44 1 0
c p weight -41 1 0
c p weight 41 -1 0
c p weight -45 1 0
c p weight 45 -1 0
c p weight -47 1 0
c p weight 47 -1 0
c p weight 51 6.12323399573676603586882014729198302312846062338790031898128063403419218957424163818359375E-17 0
c p weight -51 1 0
c p weight 52 1 0
c p weight -52 1 0
c p weight -49 1 0
c p weight 49 -1 0
c p weight -53 1 0
c p weight 53 -1 0
c p weight -55 1 0
c p weight 55 -1 0
c p weight -56 1 0
c p weight 56 -1 0
c p weight 60 6.12323399573676603586882014729198302312846062338790031898128063403419218957424163818359375E-17 0
c p weight -60 1 0
c p weight 61 1 0
c p weight -61 1 0
c p weight -58 1 0
c p weight 58 -1 0
c p weight -62 1 0
c p weight 62 -1 0
c p weight -64 1 0
c p weight 64 -1 0
c p weight 68 6.12323399573676603586882014729198302312846062338790031898128063403419218957424163818359375E-17 0
c p weight -68 1 0
c p weight 69 1 0
c p weight -69 1 0
c p weight -66 1 0
c p weight 66 -1 0
c p weight -70 1 0
c p weight 70 -1 0
c p weight -72 1 0
c p weight 72 -1 0
c p weight -73 1 0
c p weight 73 -1 0
c p weight 77 6.12323399573676603586882014729198302312846062338790031898128063403419218957424163818359375E-17 0
c p weight -77 1 0
c p weight 78 1 0
c p weight -78 1 0
c p weight -75 1 0
c p weight 75 -1 0
c p weight -79 1 0
c p weight 79 -1 0
c p weight -81 1 0
c p weight 81 -1 0
c p weight -82 1 0
c p weight 82 -1 0
c p weight 86 6.12323399573676603586882014729198302312846062338790031898128063403419218957424163818359375E-17 0
c p weight -86 1 0
c p weight 87 1 0
c p weight -87 1 0
c p weight -84 1 0
c p weight 84 -1 0
c p weight -88 1 0
c p weight 88 -1 0
c p weight -90 1 0
c p weight 90 -1 0
c p weight 94 6.12323399573676603586882014729198302312846062338790031898128063403419218957424163818359375E-17 0
c p weight -94 1 0
c p weight 95 1 0
c p weight -95 1 0
c p weight -92 1 0
c p weight 92 -1 0
c p weight -96 1 0
c p weight 96 -1 0
c p weight -98 1 0
c p weight 98 -1 0
c p weight -99 1 0
c p weight 99 -1 0
c p weight -100 1 0
c p weight 100 -1 0
c p weight 104 6.12323399573676603586882014729198302312846062338790031898128063403419218957424163818359375E-17 0
c p weight -104 1 0
c p weight 105 1 0
c p weight -105 1 0
c p weight -102 1 0
c p weight 102 -1 0
c p weight -106 1 0
c p weight 106 -1 0
c p weight -108 1 0
c p weight 108 -1 0
c p weight -111 1 0
c p weight 111 -1 0
c p weight -112 1 0
c p weight 112 -1 0
c p weight 116 6.12323399573676603586882014729198302312846062338790031898128063403419218957424163818359375E-17 0
c p weight -116 1 0
c p weight 117 1 0
c p weight -117 1 0
c p weight -114 1 0
c p weight 114 -1 0
c p weight -118 1 0
c p weight 118 -1 0
c p weight -120 1 0
c p weight 120 -1 0
c p weight -123 1 0
c p weight 123 -1 0
c p weight -124 1 0
c p weight 124 -1 0
c p weight 128 6.12323399573676603586882014729198302312846062338790031898128063403419218957424163818359375E-17 0
c p weight -128 1 0
c p weight 129 1 0
c p weight -129 1 0
c p weight -126 1 0
c p weight 126 -1 0
c p weight -130 1 0
c p weight 130 -1 0
c p weight -132 1 0
c p weight 132 -1 0
c p weight -135 1 0
c p weight 135 -1 0
c p weight 139 6.12323399573676603586882014729198302312846062338790031898128063403419218957424163818359375E-17 0
c p weight -139 1 0
c p weight 140 1 0
c p weight -140 1 0
c p weight -137 1 0
c p weight 137 -1 0
c p weight -141 1 0
c p weight 141 -1 0
c p weight -143 1 0
c p weight 143 -1 0
c p weight -146 1 0
c p weight 146 -1 0
c p weight -147 1 0
c p weight 147 -1 0
c p weight 151 6.12323399573676603586882014729198302312846062338790031898128063403419218957424163818359375E-17 0
c p weight -151 1 0
c p weight 152 1 0
c p weight -152 1 0
c p weight -149 1 0
c p weight 149 -1 0
c p weight -153 1 0
c p weight 153 -1 0
c p weight -155 1 0
c p weight 155 -1 0
c p weight -158 1 0
c p weight 158 -1 0
c p weight 162 6.12323399573676603586882014729198302312846062338790031898128063403419218957424163818359375E-17 0
c p weight -162 1 0
c p weight 163 1 0
c p weight -163 1 0
c p weight -160 1 0
c p weight 160 -1 0
c p weight -164 1 0
c p weight 164 -1 0
c p weight -166 1 0
c p weight 166 -1 0
c p weight -169 1 0
c p weight 169 -1 0
c p weight -170 1 0
c p weight 170 -1 0
c p weight 174 6.12323399573676603586882014729198302312846062338790031898128063403419218957424163818359375E-17 0
c p weight -174 1 0
c p weight 175 1 0
c p weight -175 1 0
c p weight -172 1 0
c p weight 172 -1 0
c p weight -176 1 0
c p weight 176 -1 0
c p weight -178 1 0
c p weight 178 -1 0
c p weight -181 1 0
c p weight 181 -1 0
c p weight -182 1 0
c p weight 182 -1 0
c p weight 186 6.12323399573676603586882014729198302312846062338790031898128063403419218957424163818359375E-17 0
c p weight -186 1 0
c p weight 187 1 0
c p weight -187 1 0
c p weight -184 1 0
c p weight 184 -1 0
c p weight -188 1 0
c p weight 188 -1 0
c p weight -190 1 0
c p weight 190 -1 0
c p weight -193 1 0
c p weight 193 -1 0
c p weight 197 6.12323399573676603586882014729198302312846062338790031898128063403419218957424163818359375E-17 0
c p weight -197 1 0
c p weight 198 1 0
c p weight -198 1 0
c p weight -195 1 0
c p weight 195 -1 0
c p weight -199 1 0
c p weight 199 -1 0
c p weight -201 1 0
c p weight 201 -1 0
c p weight -204 1 0
c p weight 204 -1 0
c p weight -205 1 0
c p weight 205 -1 0
c p weight 209 6.12323399573676603586882014729198302312846062338790031898128063403419218957424163818359375E-17 0
c p weight -209 1 0
c p weight 210 1 0
c p weight -210 1 0
c p weight -207 1 0
c p weight 207 -1 0
c p weight -211 1 0
c p weight 211 -1 0
c p weight 213 0.5 0
c p weight -213 1 0
213 0
-19 0
-17 0
-15 0
-13 0
-11 0
-9 0
-7 0
-5 0
-3 0
-1 0
-21 1 0
-21 2 0
21 -1 -2 0
22 1 -2 0
22 -1 2 0
-22 1 2 0
-22 -1 -2 0
-23 24 0
-23 22 0
-23 -1 0
23 -24 1 -22 0
24 -1 22 0
-24 1 22 0
-25 22 0
24 -25 -1 0
-24 -25 1 0
24 25 1 -22 0
-24 25 -1 -22 0
-26 22 0
24 -26 1 0
-24 -26 -1 0
24 26 -1 -22 0
-24 26 1 -22 0
-27 24 0
-27 22 0
27 -24 -22 0
28 24 -22 0
28 -24 22 0
-28 24 22 0
-28 -24 -22 0
29 -28 0
-29 28 0
-30 3 0
-30 4 0
30 -3 -4 0
31 3 -4 0
31 -3 4 0
-31 3 4 0
-31 -3 -4 0
-32 33 0
-32 31 0
-32 -3 0
32 -33 3 -31 0
33 -3 31 0
-33 3 31 0
-34 31 0
33 -34 -3 0
-33 -34 3 0
33 34 3 -31 0
-33 34 -3 -31 0
-35 31 0
33 -35 3 0
-33 -35 -3 0
33 35 -3 -31 0
-33 35 3 -31 0
-36 33 0
-36 31 0
36 -33 -31 0
37 33 -31 0
37 -33 31 0
-37 33 31 0
-37 -33 -31 0
38 -37 0
-38 37 0
-39 5 0
-39 6 0
39 -5 -6 0
40 5 -6 0
40 -5 6 0
-40 5 6 0
-40 -5 -6 0
-41 42 0
-41 40 0
-41 -5 0
41 -42 5 -40 0
42 -5 40 0
-42 5 40 0
-43 40 0
42 -43 -5 0
-42 -43 5 0
42 43 5 -40 0
-42 43 -5 -40 0
-44 40 0
42 -44 5 0
-42 -44 -5 0
42 44 -5 -40 0
-42 44 5 -40 0
-45 42 0
-45 40 0
45 -42 -40 0
46 42 -40 0
46 -42 40 0
-46 42 40 0
-46 -42 -40 0
-47 7 0
-47 8 0
47 -7 -8 0
48 7 -8 0
48 -7 8 0
-48 7 8 0
-48 -7 -8 0
-49 50 0
-49 48 0
-49 -7 0
49 -50 7 -48 0
50 -7 48 0
-50 7 48 0
-51 48 0
50 -51 -7 0
-50 -51 7 0
50 51 7 -48 0
-50 51 -7 -48 0
-52 48 0
50 -52 7 0
-50 -52 -7 0
50 52 -7 -48 0
-50 52 7 -48 0
-53 50 0
-53 48 0
53 -50 -48 0
54 50 -48 0
54 -50 48 0
-54 50 48 0
-54 -50 -48 0
55 -54 0
-55 54 0
-56 9 0
-56 10 0
56 -9 -10 0
57 9 -10 0
57 -9 10 0
-57 9 10 0
-57 -9 -10 0
-58 59 0
-58 57 0
-58 -9 0
58 -59 9 -57 0
59 -9 57 0
-59 9 57 0
-60 57 0
59 -60 -9 0
-59 -60 9 0
59 60 9 -57 0
-59 60 -9 -57 0
-61 57 0
59 -61 9 0
-59 -61 -9 0
59 61 -9 -57 0
-59 61 9 -57 0
-62 59 0
-62 57 0
62 -59 -57 0
63 59 -57 0
63 -59 57 0
-63 59 57 0
-63 -59 -57 0
-64 11 0
-64 12 0
64 -11 -12 0
65 11 -12 0
65 -11 12 0
-65 11 12 0
-65 -11 -12 0
-66 67 0
-66 65 0
-66 -11 0
66 -67 11 -65 0
67 -11 65 0
-67 11 65 0
-68 65 0
67 -68 -11 0
-67 -68 11 0
67 68 11 -65 0
-67 68 -11 -65 0
-69 65 0
67 -69 11 0
-67 -69 -11 0
67 69 -11 -65 0
-67 69 11 -65 0
-70 67 0
-70 65 0
70 -67 -65 0
71 67 -65 0
71 -67 65 0
-71 67 65 0
-71 -67 -65 0
72 -71 0
-72 71 0
-73 13 0
-73 14 0
73 -13 -14 0
74 13 -14 0
74 -13 14 0
-74 13 14 0
-74 -13 -14 0
-75 76 0
-75 74 0
-75 -13 0
75 -76 13 -74 0
76 -13 74 0
-76 13 74 0
-77 74 0
76 -77 -13 0
-76 -77 13 0
76 77 13 -74 0
-76 77 -13 -74 0
-78 74 0
76 -78 13 0
-76 -78 -13 0
76 78 -13 -74 0
-76 78 13 -74 0
-79 76 0
-79 74 0
79 -76 -74 0
80 76 -74 0
80 -76 74 0
-80 76 74 0
-80 -76 -74 0
81 -80 0
-81 80 0
-82 15 0
-82 16 0
82 -15 -16 0
83 15 -16 0
83 -15 16 0
-83 15 16 0
-83 -15 -16 0
-84 85 0
-84 83 0
-84 -15 0
84 -85 15 -83 0
85 -15 83 0
-85 15 83 0
-86 83 0
85 -86 -15 0
-85 -86 15 0
85 86 15 -83 0
-85 86 -15 -83 0
-87 83 0
85 -87 15 0
-85 -87 -15 0
85 87 -15 -83 0
-85 87 15 -83 0
-88 85 0
-88 83 0
88 -85 -83 0
89 85 -83 0
89 -85 83 0
-89 85 83 0
-89 -85 -83 0
-90 17 0
-90 18 0
90 -17 -18 0
91 17 -18 0
91 -17 18 0
-91 17 18 0
-91 -17 -18 0
-92 93 0
-92 91 0
-92 -17 0
92 -93 17 -91 0
93 -17 91 0
-93 17 91 0
-94 91 0
93 -94 -17 0
-93 -94 17 0
93 94 17 -91 0
-93 94 -17 -91 0
-95 91 0
93 -95 17 0
-93 -95 -17 0
93 95 -17 -91 0
-93 95 17 -91 0
-96 93 0
-96 91 0
96 -93 -91 0
97 93 -91 0
97 -93 91 0
-97 93 91 0
-97 -93 -91 0
98 -97 0
-98 97 0
99 -20 0
-99 20 0
-100 19 0
-100 20 0
100 -19 -20 0
101 19 -20 0
101 -19 20 0
-101 19 20 0
-101 -19 -20 0
-102 103 0
-102 101 0
-102 -19 0
102 -103 19 -101 0
103 -19 101 0
-103 19 101 0
-104 101 0
103 -104 -19 0
-103 -104 19 0
103 104 19 -101 0
-103 104 -19 -101 0
-105 101 0
103 -105 19 0
-103 -105 -19 0
103 105 -19 -101 0
-103 105 19 -101 0
-106 103 0
-106 101 0
106 -103 -101 0
107 103 -101 0
107 -103 101 0
-107 103 101 0
-107 -103 -101 0
-108 24 0
-108 107 0
-108 103 -28 0
-108 -103 28 0
108 -24 103 28 -107 0
108 -24 -103 -28 -107 0
110 24 -103 0
110 -24 103 0
-110 24 103 0
-110 -24 -103 0
109 28 -107 0
109 -28 107 0
-109 28 107 0
-109 -28 -107 0
111 -109 0
-111 109 0
-112 24 0
-112 109 0
112 -24 -109 0
113 24 -109 0
113 -24 109 0
-113 24 109 0
-113 -24 -109 0
-114 115 0
-114 113 0
-114 -24 0
114 -115 24 -113 0
115 -24 113 0
-115 24 113 0
-116 113 0
115 -116 -24 0
-115 -116 24 0
115 116 24 -113 0
-115 116 -24 -113 0
-117 113 0
115 -117 24 0
-115 -117 -24 0
115 117 -24 -113 0
-115 117 24 -113 0
-118 115 0
-118 113 0
118 -115 -113 0
119 115 -113 0
119 -115 113 0
-119 115 113 0
-119 -115 -113 0
-120 33 0
-120 107 0
-120 110 -37 0
-120 -110 37 0
120 -33 110 37 -107 0
120 -33 -110 -37 -107 0
122 33 -110 0
122 -33 110 0
-122 33 110 0
-122 -33 -110 0
121 37 -107 0
121 -37 107 0
-121 37 107 0
-121 -37 -107 0
123 -121 0
-123 121 0
-124 33 0
-124 121 0
124 -33 -121 0
125 33 -121 0
125 -33 121 0
-125 33 121 0
-125 -33 -121 0
-126 127 0
-126 125 0
-126 -33 0
126 -127 33 -125 0
127 -33 125 0
-127 33 125 0
-128 125 0
127 -128 -33 0
-127 -128 33 0
127 128 33 -125 0
-127 128 -33 -125 0
-129 125 0
127 -129 33 0
-127 -129 -33 0
127 129 -33 -125 0
-127 129 33 -125 0
-130 127 0
-130 125 0
130 -127 -125 0
131 127 -125 0
131 -127 125 0
-131 127 125 0
-131 -127 -125 0
-132 42 0
-132 107 0
-132 122 -46 0
-132 -122 46 0
132 -42 122 46 -107 0
132 -42 -122 -46 -107 0
134 42 -122 0
134 -42 122 0
-134 42 122 0
-134 -42 -122 0
133 46 -107 0
133 -46 107 0
-133 46 107 0
-133 -46 -107 0
-135 42 0
-135 133 0
135 -42 -133 0
136 42 -133 0
136 -42 133 0
-136 42 133 0
-136 -42 -133 0
-137 138 0
-137 136 0
-137 -42 0
137 -138 42 -136 0
138 -42 136 0
-138 42 136 0
-139 136 0
138 -139 -42 0
-138 -139 42 0
138 139 42 -136 0
-138 139 -42 -136 0
-140 136 0
138 -140 42 0
-138 -140 -42 0
138 140 -42 -136 0
-138 140 42 -136 0
-141 138 0
-141 136 0
141 -138 -136 0
142 138 -136 0
142 -138 136 0
-142 138 136 0
-142 -138 -136 0
-143 50 0
-143 107 0
-143 134 -54 0
-143 -134 54 0
143 -50 134 54 -107 0
143 -50 -134 -54 -107 0
145 50 -134 0
145 -50 134 0
-145 50 134 0
-145 -50 -134 0
144 54 -107 0
144 -54 107 0
-144 54 107 0
-144 -54 -107 0
146 -144 0
-146 144 0
-147 50 0
-147 144 0
147 -50 -144 0
148 50 -144 0
148 -50 144 0
-148 50 144 0
-148 -50 -144 0
-149 150 0
-149 148 0
-149 -50 0
149 -150 50 -148 0
150 -50 148 0
-150 50 148 0
-151 148 0
150 -151 -50 0
-150 -151 50 0
150 151 50 -148 0
-150 151 -50 -148 0
-152 148 0
150 -152 50 0
-150 -152 -50 0
150 152 -50 -148 0
-150 152 50 -148 0
-153 150 0
-153 148 0
153 -150 -148 0
154 150 -148 0
154 -150 148 0
-154 150 148 0
-154 -150 -148 0
-155 59 0
-155 107 0
-155 145 -63 0
-155 -145 63 0
155 -59 145 63 -107 0
155 -59 -145 -63 -107 0
157 59 -145 0
157 -59 145 0
-157 59 145 0
-157 -59 -145 0
156 63 -107 0
156 -63 107 0
-156 63 107 0
-156 -63 -107 0
-158 59 0
-158 156 0
158 -59 -156 0
159 59 -156 0
159 -59 156 0
-159 59 156 0
-159 -59 -156 0
-160 161 0
-160 159 0
-160 -59 0
160 -161 59 -159 0
161 -59 159 0
-161 59 159 0
-162 159 0
161 -162 -59 0
-161 -162 59 0
161 162 59 -159 0
-161 162 -59 -159 0
-163 159 0
161 -163 59 0
-161 -163 -59 0
161 163 -59 -159 0
-161 163 59 -159 0
-164 161 0
-164 159 0
164 -161 -159 0
165 161 -159 0
165 -161 159 0
-165 161 159 0
-165 -161 -159 0
-166 67 0
-166 107 0
-166 157 -71 0
-166 -157 71 0
166 -67 157 71 -107 0
166 -67 -157 -71 -107 0
168 67 -157 0
168 -67 157 0
-168 67 157 0
-168 -67 -157 0
167 71 -107 0
167 -71 107 0
-167 71 107 0
-167 -71 -107 0
169 -167 0
-169 167 0
-170 67 0
-170 167 0
170 -67 -167 0
171 67 -167 0
171 -67 167 0
-171 67 167 0
-171 -67 -167 0
-172 173 0
-172 171 0
-172 -67 0
172 -173 67 -171 0
173 -67 171 0
-173 67 171 0
-174 171 0
173 -174 -67 0
-173 -174 67 0
173 174 67 -171 0
-173 174 -67 -171 0
-175 171 0
173 -175 67 0
-173 -175 -67 0
173 175 -67 -171 0
-173 175 67 -171 0
-176 173 0
-176 171 0
176 -173 -171 0
177 173 -171 0
177 -173 171 0
-177 173 171 0
-177 -173 -171 0
-178 76 0
-178 107 0
-178 168 -80 0
-178 -168 80 0
178 -76 168 80 -107 0
178 -76 -168 -80 -107 0
180 76 -168 0
180 -76 168 0
-180 76 168 0
-180 -76 -168 0
179 80 -107 0
179 -80 107 0
-179 80 107 0
-179 -80 -107 0
181 -179 0
-181 179 0
-182 76 0
-182 179 0
182 -76 -179 0
183 76 -179 0
183 -76 179 0
-183 76 179 0
-183 -76 -179 0
-184 185 0
-184 183 0
-184 -76 0
184 -185 76 -183 0
185 -76 183 0
-185 76 183 0
-186 183 0
185 -186 -76 0
-185 -186 76 0
185 186 76 -183 0
-185 186 -76 -183 0
-187 183 0
185 -187 76 0
-185 -187 -76 0
185 187 -76 -183 0
-185 187 76 -183 0
-188 185 0
-188 183 0
188 -185 -183 0
189 185 -183 0
189 -185 183 0
-189 185 183 0
-189 -185 -183 0
-190 85 0
-190 107 0
-190 180 -89 0
-190 -180 89 0
190 -85 180 89 -107 0
190 -85 -180 -89 -107 0
192 85 -180 0
192 -85 180 0
-192 85 180 0
-192 -85 -180 0
191 89 -107 0
191 -89 107 0
-191 89 107 0
-191 -89 -107 0
-193 85 0
-193 191 0
193 -85 -191 0
194 85 -191 0
194 -85 191 0
-194 85 191 0
-194 -85 -191 0
-195 196 0
-195 194 0
-195 -85 0
195 -196 85 -194 0
196 -85 194 0
-196 85 194 0
-197 194 0
196 -197 -85 0
-196 -197 85 0
196 197 85 -194 0
-196 197 -85 -194 0
-198 194 0
196 -198 85 0
-196 -198 -85 0
196 198 -85 -194 0
-196 198 85 -194 0
-199 196 0
-199 194 0
199 -196 -194 0
200 196 -194 0
200 -196 194 0
-200 196 194 0
-200 -196 -194 0
-201 93 0
-201 107 0
-201 192 -97 0
-201 -192 97 0
201 -93 192 97 -107 0
201 -93 -192 -97 -107 0
203 93 -192 0
203 -93 192 0
-203 93 192 0
-203 -93 -192 0
202 97 -107 0
202 -97 107 0
-202 97 107 0
-202 -97 -107 0
204 -202 0
-204 202 0
-205 93 0
-205 202 0
205 -93 -202 0
206 93 -202 0
206 -93 202 0
-206 93 202 0
-206 -93 -202 0
-207 208 0
-207 206 0
-207 -93 0
207 -208 93 -206 0
208 -93 206 0
-208 93 206 0
-209 206 0
208 -209 -93 0
-208 -209 93 0
208 209 93 -206 0
-208 209 -93 -206 0
-210 206 0
208 -210 93 0
-208 -210 -93 0
208 210 -93 -206 0
-208 210 93 -206 0
-211 208 0
-211 206 0
211 -208 -206 0
212 208 -206 0
212 -208 206 0
-212 208 206 0
-212 -208 -206 0
-115 0
-127 0
-131 0
-138 0
-142 0
-150 0
-154 0
-161 0
-165 0
-173 0
-177 0
-185 0
-189 0
-196 0
-200 0
-208 0
-212 0
-203 0
-107 0
