wmc_benchmarks/MQTBench/dj_nativegates_ibm_qiskit_opt0_10.qasm
// Used Gate Set: ['id', 'rz', 'sx', 'x', 'cx', 'measure', 'barrier']
OPENQASM 2.0;
include "qelib1.inc";
qreg q[10];
rz(pi/2) q[0];
rx(0.5*pi) q[0];
rz(pi/2) q[0];
x q[0];
rz(pi/2) q[1];
rx(0.5*pi) q[1];
rz(pi/2) q[1];
x q[1];
rz(pi/2) q[2];
rx(0.5*pi) q[2];
rz(pi/2) q[2];
rz(pi/2) q[3];
rx(0.5*pi) q[3];
rz(pi/2) q[3];
x q[3];
rz(pi/2) q[4];
rx(0.5*pi) q[4];
rz(pi/2) q[4];
rz(pi/2) q[5];
rx(0.5*pi) q[5];
rz(pi/2) q[5];
x q[5];
rz(pi/2) q[6];
rx(0.5*pi) q[6];
rz(pi/2) q[6];
x q[6];
rz(pi/2) q[7];
rx(0.5*pi) q[7];
rz(pi/2) q[7];
rz(pi/2) q[8];
rx(0.5*pi) q[8];
rz(pi/2) q[8];
x q[8];
x q[9];
rz(pi/2) q[9];
rx(0.5*pi) q[9];
rz(pi/2) q[9];
cx q[0],q[9];
x q[0];
rz(pi/2) q[0];
rx(0.5*pi) q[0];
rz(pi/2) q[0];
cx q[1],q[9];
x q[1];
rz(pi/2) q[1];
rx(0.5*pi) q[1];
rz(pi/2) q[1];
cx q[2],q[9];
rz(pi/2) q[2];
rx(0.5*pi) q[2];
rz(pi/2) q[2];
cx q[3],q[9];
x q[3];
rz(pi/2) q[3];
rx(0.5*pi) q[3];
rz(pi/2) q[3];
cx q[4],q[9];
rz(pi/2) q[4];
rx(0.5*pi) q[4];
rz(pi/2) q[4];
cx q[5],q[9];
x q[5];
rz(pi/2) q[5];
rx(0.5*pi) q[5];
rz(pi/2) q[5];
cx q[6],q[9];
x q[6];
rz(pi/2) q[6];
rx(0.5*pi) q[6];
rz(pi/2) q[6];
cx q[7],q[9];
rz(pi/2) q[7];
rx(0.5*pi) q[7];
rz(pi/2) q[7];
cx q[8],q[9];
x q[8];
rz(pi/2) q[8];
rx(0.5*pi) q[8];
rz(pi/2) q[8];
